jobs  (incl. supersource/sink ):	102
RESOURCES
- renewable                 : 2 R
- nonrenewable              : 2 N
- doubly constrained        : 0 D
************************************************************************
PRECEDENCE RELATIONS:
jobnr.    #modes  #successors   successors
1	1	9		2 3 4 5 7 8 9 10 13 
2	9	6		24 22 18 17 16 6 
3	9	4		24 14 12 11 
4	9	8		29 26 25 24 22 18 16 15 
5	9	4		24 22 18 6 
6	9	7		32 29 26 25 23 21 15 
7	9	5		33 29 20 19 16 
8	9	6		32 26 25 23 21 15 
9	9	5		26 24 23 21 15 
10	9	7		35 29 27 25 24 22 20 
11	9	5		32 25 23 21 15 
12	9	4		28 26 25 16 
13	9	10		41 39 35 33 30 29 27 26 22 20 
14	9	7		41 39 35 33 29 23 19 
15	9	8		41 40 39 35 33 30 27 20 
16	9	7		39 36 35 32 30 23 21 
17	9	12		43 41 40 39 38 36 35 34 33 32 29 26 
18	9	5		39 33 32 28 21 
19	9	7		40 36 34 32 28 27 26 
20	9	7		43 42 38 37 36 34 28 
21	9	7		56 41 40 38 37 34 27 
22	9	6		43 40 38 37 34 28 
23	9	7		44 42 40 38 37 34 31 
24	9	7		45 41 40 38 34 33 32 
25	9	10		58 50 47 46 44 43 40 39 37 30 
26	9	6		50 49 47 44 37 31 
27	9	10		58 52 51 49 48 47 46 45 44 43 
28	9	6		64 49 47 45 44 31 
29	9	7		58 56 51 50 49 48 37 
30	9	7		56 55 52 51 48 45 42 
31	9	8		58 57 56 55 53 52 51 48 
32	9	7		64 58 55 52 51 48 46 
33	9	5		58 56 49 48 42 
34	9	7		64 57 55 52 51 47 46 
35	9	6		65 64 55 52 48 44 
36	9	6		65 64 57 54 49 46 
37	9	6		65 64 57 55 52 45 
38	9	5		65 62 57 50 49 
39	9	7		65 62 60 57 55 53 48 
40	9	6		65 64 62 57 52 48 
41	9	7		68 65 64 62 60 54 53 
42	9	6		64 62 61 60 57 54 
43	9	7		69 68 65 64 59 55 53 
44	9	5		69 62 59 57 53 
45	9	5		69 68 62 59 53 
46	9	4		68 62 60 53 
47	9	4		69 65 59 53 
48	9	3		68 61 54 
49	9	3		60 55 53 
50	9	2		61 54 
51	9	5		74 66 65 63 59 
52	9	3		63 60 59 
53	9	4		71 66 63 61 
54	9	4		69 66 63 59 
55	9	4		71 66 63 61 
56	9	4		74 69 62 59 
57	9	4		72 68 66 63 
58	9	4		74 72 66 63 
59	9	8		80 78 77 75 72 71 70 67 
60	9	5		72 71 69 67 66 
61	9	8		91 80 77 75 74 73 72 67 
62	9	7		91 81 78 77 73 72 67 
63	9	6		81 80 78 75 70 67 
64	9	5		78 77 76 70 66 
65	9	6		79 77 76 73 72 70 
66	9	6		91 85 84 81 79 73 
67	9	8		101 100 99 90 88 82 79 76 
68	9	6		101 90 83 81 80 74 
69	9	7		99 89 85 84 83 79 77 
70	9	12		101 100 99 96 94 91 89 88 87 86 85 84 
71	9	6		99 91 85 84 81 79 
72	9	10		101 100 99 96 88 87 86 85 84 83 
73	9	8		100 99 98 97 90 89 88 82 
74	9	8		96 94 89 88 87 86 85 84 
75	9	8		99 98 97 96 95 88 86 83 
76	9	5		94 89 86 85 84 
77	9	6		101 95 94 93 90 86 
78	9	6		97 95 94 87 86 84 
79	9	5		96 95 94 87 86 
80	9	5		99 96 94 88 86 
81	9	5		100 97 95 92 87 
82	9	3		95 86 83 
83	9	3		94 93 92 
84	9	2		93 92 
85	9	2		98 97 
86	9	1		92 
87	9	1		93 
88	9	1		93 
89	9	1		95 
90	9	1		96 
91	9	1		92 
92	9	1		102 
93	9	1		102 
94	9	1		102 
95	9	1		102 
96	9	1		102 
97	9	1		102 
98	9	1		102 
99	9	1		102 
100	9	1		102 
101	9	1		102 
102	1	0		
************************************************************************
REQUESTS/DURATIONS
jobnr.	mode	dur	R1	R2	N1	N2	
------------------------------------------------------------------------
1	1	0	0	0	0	0	
2	1	1	4	5	13	23	
	2	4	4	4	12	23	
	3	15	3	4	12	18	
	4	19	3	4	12	17	
	5	22	3	3	12	15	
	6	23	2	3	12	11	
	7	26	1	3	12	11	
	8	29	1	3	12	6	
	9	30	1	3	12	5	
3	1	5	3	4	16	22	
	2	6	3	4	15	20	
	3	8	3	4	13	19	
	4	13	3	4	12	15	
	5	14	3	4	10	14	
	6	17	2	3	10	13	
	7	20	2	3	7	11	
	8	21	2	3	5	8	
	9	25	2	3	5	6	
4	1	1	5	3	29	27	
	2	3	4	3	27	26	
	3	5	4	3	27	25	
	4	18	4	3	25	23	
	5	20	3	3	23	23	
	6	21	3	3	22	22	
	7	25	2	3	20	22	
	8	26	2	3	19	21	
	9	27	2	3	18	20	
5	1	1	2	3	20	19	
	2	3	2	2	17	18	
	3	4	2	2	17	17	
	4	13	2	2	15	14	
	5	16	2	2	14	13	
	6	25	2	1	13	12	
	7	26	2	1	10	12	
	8	27	2	1	10	9	
	9	28	2	1	8	9	
6	1	2	4	3	23	27	
	2	5	3	2	22	25	
	3	16	3	2	21	22	
	4	17	3	2	21	21	
	5	18	3	1	20	16	
	6	23	3	1	20	15	
	7	24	3	1	20	12	
	8	28	3	1	19	9	
	9	30	3	1	19	6	
7	1	4	5	2	23	5	
	2	6	4	2	21	5	
	3	7	4	2	19	5	
	4	8	3	2	18	5	
	5	10	3	2	16	5	
	6	17	3	2	14	5	
	7	21	3	2	11	5	
	8	25	2	2	10	5	
	9	30	2	2	8	5	
8	1	1	4	3	20	26	
	2	2	4	3	17	21	
	3	6	4	3	14	19	
	4	11	4	3	12	16	
	5	13	3	2	11	13	
	6	17	3	2	9	12	
	7	20	3	2	7	10	
	8	25	3	1	7	4	
	9	28	3	1	5	3	
9	1	13	4	5	22	15	
	2	14	3	4	21	15	
	3	15	3	4	20	14	
	4	18	3	4	19	12	
	5	21	3	4	18	11	
	6	24	3	4	17	9	
	7	25	3	4	16	9	
	8	28	3	4	16	7	
	9	29	3	4	15	6	
10	1	1	3	4	10	24	
	2	2	2	3	10	23	
	3	5	2	3	9	23	
	4	13	2	3	9	22	
	5	19	2	3	8	22	
	6	23	1	3	8	22	
	7	24	1	3	8	21	
	8	25	1	3	7	21	
	9	27	1	3	7	20	
11	1	5	5	3	18	18	
	2	9	4	3	16	17	
	3	13	4	3	16	16	
	4	14	4	3	14	17	
	5	16	3	3	13	17	
	6	22	3	3	10	17	
	7	25	3	3	10	16	
	8	29	3	3	8	17	
	9	30	3	3	7	17	
12	1	3	5	4	15	22	
	2	5	4	3	14	21	
	3	10	4	3	12	17	
	4	12	4	3	11	16	
	5	21	4	2	11	11	
	6	22	4	2	8	11	
	7	25	4	2	7	8	
	8	28	4	2	7	6	
	9	29	4	2	5	1	
13	1	4	4	2	13	13	
	2	13	3	1	11	13	
	3	14	3	1	11	11	
	4	18	3	1	10	11	
	5	19	3	1	9	10	
	6	24	3	1	9	8	
	7	28	3	1	7	7	
	8	29	3	1	6	7	
	9	30	3	1	6	6	
14	1	8	4	4	21	28	
	2	10	4	4	20	23	
	3	11	4	4	20	22	
	4	12	4	4	19	19	
	5	17	4	4	18	16	
	6	21	4	4	18	13	
	7	24	4	4	17	10	
	8	26	4	4	17	7	
	9	30	4	4	16	3	
15	1	2	2	2	10	22	
	2	3	1	2	8	21	
	3	6	1	2	8	20	
	4	10	1	2	7	19	
	5	16	1	2	7	17	
	6	23	1	2	6	16	
	7	27	1	2	5	15	
	8	28	1	2	4	14	
	9	29	1	2	4	13	
16	1	3	5	3	23	23	
	2	8	4	3	22	20	
	3	9	3	3	22	20	
	4	13	3	3	19	17	
	5	20	3	3	18	15	
	6	21	2	3	16	15	
	7	22	1	3	14	13	
	8	23	1	3	14	11	
	9	30	1	3	12	9	
17	1	2	3	1	21	14	
	2	3	3	1	19	12	
	3	4	3	1	17	12	
	4	8	3	1	16	11	
	5	12	2	1	14	11	
	6	13	2	1	13	10	
	7	15	1	1	12	9	
	8	28	1	1	11	9	
	9	29	1	1	11	8	
18	1	1	3	5	14	16	
	2	8	3	4	14	15	
	3	15	3	4	13	14	
	4	18	3	4	12	14	
	5	19	3	4	12	13	
	6	20	3	4	11	12	
	7	21	3	4	11	10	
	8	23	3	4	10	9	
	9	24	3	4	10	8	
19	1	3	4	4	25	26	
	2	5	4	3	25	23	
	3	12	4	3	24	22	
	4	18	4	3	22	22	
	5	19	3	3	21	20	
	6	20	3	3	21	18	
	7	21	3	3	19	16	
	8	25	3	3	18	16	
	9	26	3	3	18	15	
20	1	2	3	3	24	20	
	2	8	3	2	23	16	
	3	9	3	2	23	14	
	4	13	3	2	22	13	
	5	15	3	2	21	11	
	6	22	2	2	21	11	
	7	27	2	2	20	8	
	8	28	2	2	20	7	
	9	30	2	2	20	5	
21	1	1	3	5	21	18	
	2	2	2	4	19	17	
	3	5	2	4	18	16	
	4	10	2	4	18	13	
	5	11	1	4	17	9	
	6	12	1	4	16	8	
	7	13	1	4	15	7	
	8	24	1	4	13	3	
	9	28	1	4	13	2	
22	1	1	3	5	25	28	
	2	5	3	5	24	26	
	3	8	3	5	24	25	
	4	12	3	5	24	24	
	5	18	3	5	23	23	
	6	19	2	5	23	23	
	7	21	2	5	22	21	
	8	27	2	5	22	20	
	9	30	2	5	22	19	
23	1	1	4	4	23	7	
	2	2	4	4	23	6	
	3	6	4	4	22	6	
	4	11	4	4	21	4	
	5	12	3	4	21	4	
	6	13	3	3	20	3	
	7	14	2	3	20	2	
	8	28	2	3	18	2	
	9	29	2	3	18	1	
24	1	5	5	2	24	29	
	2	6	4	1	23	26	
	3	7	3	1	22	22	
	4	8	3	1	21	19	
	5	16	3	1	21	17	
	6	18	2	1	21	12	
	7	21	2	1	19	12	
	8	23	1	1	19	9	
	9	24	1	1	18	5	
25	1	3	5	3	20	24	
	2	8	5	3	18	18	
	3	9	5	3	16	18	
	4	15	5	3	15	13	
	5	18	5	3	13	12	
	6	21	5	3	10	11	
	7	22	5	3	8	8	
	8	29	5	3	6	4	
	9	30	5	3	2	3	
26	1	8	5	2	13	13	
	2	12	4	2	13	13	
	3	14	3	2	12	12	
	4	17	3	2	11	12	
	5	19	2	1	10	11	
	6	27	2	1	10	10	
	7	28	2	1	9	11	
	8	29	1	1	9	10	
	9	30	1	1	8	10	
27	1	1	4	4	23	11	
	2	5	3	4	20	10	
	3	6	3	4	17	10	
	4	8	3	4	15	10	
	5	9	3	4	13	9	
	6	10	2	4	10	9	
	7	21	2	4	8	9	
	8	23	2	4	6	8	
	9	25	2	4	5	8	
28	1	6	3	5	25	25	
	2	7	2	4	25	22	
	3	15	2	3	22	20	
	4	16	2	3	17	17	
	5	17	2	3	15	16	
	6	21	2	2	10	15	
	7	25	2	2	10	11	
	8	26	2	1	7	10	
	9	27	2	1	4	9	
29	1	4	2	3	20	28	
	2	6	2	2	20	27	
	3	8	2	2	20	26	
	4	10	2	2	20	25	
	5	11	2	2	20	24	
	6	12	2	2	20	23	
	7	14	2	2	20	21	
	8	16	2	2	20	20	
	9	21	2	2	20	19	
30	1	2	5	2	8	26	
	2	8	4	2	7	25	
	3	9	4	2	6	24	
	4	12	3	2	5	20	
	5	13	3	2	5	18	
	6	14	3	1	4	17	
	7	22	3	1	4	15	
	8	23	2	1	3	12	
	9	28	2	1	3	11	
31	1	2	3	4	21	28	
	2	10	2	3	20	24	
	3	11	2	3	19	23	
	4	12	2	3	18	22	
	5	19	2	3	16	17	
	6	20	2	3	15	17	
	7	22	2	3	14	14	
	8	23	2	3	14	11	
	9	29	2	3	12	10	
32	1	3	4	4	9	26	
	2	4	3	3	9	26	
	3	5	3	3	9	25	
	4	10	3	3	9	24	
	5	16	3	3	9	23	
	6	18	3	3	9	22	
	7	19	3	3	9	21	
	8	23	3	3	9	20	
	9	27	3	3	9	19	
33	1	1	3	2	25	11	
	2	3	3	1	24	9	
	3	6	3	1	24	8	
	4	10	3	1	24	7	
	5	11	3	1	24	6	
	6	14	3	1	23	6	
	7	22	3	1	23	5	
	8	24	3	1	23	3	
	9	29	3	1	23	2	
34	1	3	2	4	10	15	
	2	4	2	4	8	13	
	3	5	2	4	8	12	
	4	16	2	4	7	11	
	5	18	2	4	6	10	
	6	23	1	3	5	8	
	7	25	1	3	3	6	
	8	28	1	3	3	5	
	9	29	1	3	1	4	
35	1	5	1	2	25	28	
	2	9	1	2	23	28	
	3	10	1	2	21	26	
	4	17	1	2	19	24	
	5	18	1	2	18	21	
	6	23	1	2	16	18	
	7	24	1	2	14	17	
	8	26	1	2	13	16	
	9	27	1	2	11	13	
36	1	3	5	3	8	13	
	2	4	4	2	7	12	
	3	7	4	2	5	12	
	4	11	3	2	4	11	
	5	14	2	2	4	11	
	6	21	2	1	4	10	
	7	22	2	1	3	9	
	8	24	1	1	1	8	
	9	25	1	1	1	7	
37	1	4	2	1	6	30	
	2	5	2	1	6	25	
	3	6	2	1	6	24	
	4	13	2	1	6	22	
	5	18	2	1	5	17	
	6	19	2	1	5	16	
	7	26	2	1	5	12	
	8	28	2	1	5	11	
	9	30	2	1	5	9	
38	1	2	4	3	14	25	
	2	3	3	3	14	23	
	3	4	3	3	14	22	
	4	16	3	3	14	21	
	5	18	3	3	14	19	
	6	25	2	3	14	18	
	7	26	2	3	14	16	
	8	27	2	3	14	15	
	9	28	2	3	14	14	
39	1	1	2	4	22	23	
	2	2	2	3	22	23	
	3	3	2	3	20	19	
	4	7	2	3	19	16	
	5	15	2	3	18	14	
	6	16	2	3	17	11	
	7	25	2	3	17	7	
	8	26	2	3	16	4	
	9	29	2	3	15	4	
40	1	1	1	5	25	22	
	2	2	1	4	24	21	
	3	9	1	3	21	20	
	4	10	1	3	20	19	
	5	13	1	3	18	18	
	6	17	1	2	17	18	
	7	18	1	1	13	18	
	8	23	1	1	11	16	
	9	25	1	1	9	16	
41	1	1	5	4	26	18	
	2	5	4	4	23	16	
	3	16	4	4	21	16	
	4	17	4	3	16	14	
	5	19	4	2	14	9	
	6	20	3	2	14	9	
	7	25	3	2	11	7	
	8	29	3	1	8	3	
	9	30	3	1	7	2	
42	1	2	4	4	10	25	
	2	6	4	3	9	23	
	3	7	4	3	8	22	
	4	9	4	2	6	21	
	5	16	4	2	6	17	
	6	19	4	2	5	17	
	7	20	4	1	4	14	
	8	21	4	1	3	11	
	9	30	4	1	3	10	
43	1	1	5	5	29	27	
	2	3	5	4	27	23	
	3	5	5	4	25	22	
	4	9	5	4	25	20	
	5	21	5	4	24	18	
	6	22	5	4	22	17	
	7	23	5	4	20	15	
	8	24	5	4	20	13	
	9	29	5	4	19	9	
44	1	5	3	5	11	20	
	2	13	3	4	10	19	
	3	20	3	4	10	17	
	4	23	3	3	10	16	
	5	25	2	3	9	15	
	6	27	2	3	9	14	
	7	28	2	2	9	14	
	8	29	2	2	9	13	
	9	30	2	2	9	12	
45	1	2	3	3	12	29	
	2	7	3	3	11	28	
	3	9	3	3	11	27	
	4	13	3	3	11	26	
	5	14	3	2	11	26	
	6	19	3	2	11	25	
	7	26	3	2	11	24	
	8	29	3	2	11	23	
	9	30	3	2	11	22	
46	1	1	4	5	20	26	
	2	3	3	4	18	24	
	3	7	3	4	16	23	
	4	11	3	3	15	19	
	5	12	2	2	14	18	
	6	18	2	2	12	17	
	7	26	2	2	8	15	
	8	28	2	1	6	12	
	9	29	2	1	6	10	
47	1	3	4	2	22	16	
	2	8	3	2	21	15	
	3	13	3	2	20	15	
	4	16	3	2	20	14	
	5	25	2	2	20	13	
	6	26	2	2	19	13	
	7	27	2	2	18	11	
	8	28	1	2	18	11	
	9	29	1	2	18	10	
48	1	3	3	3	29	24	
	2	8	3	3	28	22	
	3	10	3	3	28	21	
	4	11	3	3	28	19	
	5	13	3	2	27	18	
	6	14	3	2	27	17	
	7	20	3	2	27	15	
	8	27	3	2	27	14	
	9	30	3	2	27	13	
49	1	3	1	2	20	17	
	2	13	1	2	17	16	
	3	14	1	2	14	16	
	4	15	1	2	14	15	
	5	17	1	2	11	16	
	6	18	1	1	9	16	
	7	19	1	1	6	16	
	8	23	1	1	5	16	
	9	24	1	1	4	16	
50	1	2	1	5	12	10	
	2	3	1	4	10	9	
	3	7	1	4	9	9	
	4	10	1	4	7	9	
	5	11	1	4	7	8	
	6	14	1	4	5	9	
	7	17	1	4	4	9	
	8	25	1	4	2	9	
	9	29	1	4	1	9	
51	1	3	1	3	24	19	
	2	10	1	2	23	19	
	3	12	1	2	21	19	
	4	13	1	2	20	19	
	5	18	1	1	19	19	
	6	19	1	1	19	18	
	7	20	1	1	17	20	
	8	21	1	1	17	19	
	9	25	1	1	16	19	
52	1	3	4	3	19	25	
	2	8	3	3	17	24	
	3	9	3	3	16	24	
	4	10	3	2	16	24	
	5	17	2	2	14	24	
	6	18	2	2	13	23	
	7	19	1	1	13	23	
	8	20	1	1	11	23	
	9	24	1	1	11	22	
53	1	2	3	1	8	16	
	2	4	3	1	7	15	
	3	12	3	1	7	14	
	4	13	2	1	6	13	
	5	18	2	1	6	12	
	6	19	2	1	6	11	
	7	20	1	1	6	10	
	8	21	1	1	5	9	
	9	22	1	1	5	8	
54	1	1	1	1	28	28	
	2	3	1	1	24	27	
	3	4	1	1	20	24	
	4	20	1	1	19	19	
	5	22	1	1	15	16	
	6	23	1	1	14	15	
	7	24	1	1	8	13	
	8	28	1	1	6	7	
	9	29	1	1	2	6	
55	1	2	3	3	21	19	
	2	3	3	2	21	18	
	3	4	3	2	21	16	
	4	12	3	2	21	13	
	5	14	3	1	20	11	
	6	18	3	1	20	10	
	7	20	3	1	20	9	
	8	27	3	1	20	8	
	9	29	3	1	20	6	
56	1	3	5	4	15	27	
	2	5	4	4	13	26	
	3	6	4	4	12	26	
	4	7	3	4	12	24	
	5	9	3	4	10	23	
	6	10	3	3	10	23	
	7	11	3	3	9	21	
	8	17	2	3	8	20	
	9	27	2	3	7	20	
57	1	1	4	5	25	28	
	2	2	3	4	22	28	
	3	8	3	3	22	25	
	4	20	2	3	20	22	
	5	21	2	2	18	22	
	6	22	2	2	14	20	
	7	23	2	1	14	19	
	8	26	1	1	11	16	
	9	27	1	1	9	15	
58	1	2	4	4	24	17	
	2	4	4	4	24	15	
	3	7	4	4	20	12	
	4	8	4	4	17	10	
	5	15	3	4	16	8	
	6	16	3	4	14	8	
	7	17	3	4	11	5	
	8	28	3	4	9	5	
	9	29	3	4	8	2	
59	1	1	3	4	15	25	
	2	5	3	3	12	24	
	3	6	3	3	10	23	
	4	9	3	3	9	23	
	5	11	3	2	8	22	
	6	14	3	2	6	20	
	7	21	3	2	6	19	
	8	24	3	2	3	18	
	9	28	3	2	2	18	
60	1	2	3	3	16	18	
	2	5	3	3	16	17	
	3	7	3	3	15	17	
	4	11	3	3	14	17	
	5	19	3	3	14	16	
	6	21	3	3	14	15	
	7	22	3	3	13	15	
	8	26	3	3	13	14	
	9	27	3	3	12	15	
61	1	1	2	3	24	30	
	2	2	2	2	22	26	
	3	3	2	2	22	24	
	4	11	2	2	20	23	
	5	12	2	2	17	21	
	6	17	2	1	16	20	
	7	21	2	1	16	18	
	8	23	2	1	14	15	
	9	28	2	1	12	14	
62	1	1	4	4	14	30	
	2	10	4	4	11	29	
	3	14	4	4	11	28	
	4	15	4	4	10	29	
	5	16	3	4	7	28	
	6	18	3	4	7	27	
	7	19	3	4	4	28	
	8	27	3	4	3	28	
	9	28	3	4	3	27	
63	1	1	3	4	29	18	
	2	4	3	3	26	19	
	3	5	3	3	26	18	
	4	10	2	3	24	18	
	5	14	2	3	21	17	
	6	16	2	3	21	16	
	7	17	1	3	18	17	
	8	18	1	3	18	16	
	9	28	1	3	17	16	
64	1	1	4	3	19	25	
	2	12	4	3	15	23	
	3	14	4	3	14	22	
	4	15	4	3	14	20	
	5	17	4	3	11	16	
	6	21	3	3	10	14	
	7	23	3	3	7	12	
	8	26	3	3	5	6	
	9	27	3	3	5	5	
65	1	1	2	4	18	22	
	2	5	2	4	16	23	
	3	6	2	4	16	22	
	4	7	2	3	15	22	
	5	8	2	3	15	21	
	6	10	2	3	15	20	
	7	11	2	3	14	21	
	8	21	2	2	13	21	
	9	30	2	2	13	20	
66	1	6	5	3	22	29	
	2	8	5	2	21	27	
	3	16	5	2	20	24	
	4	18	5	2	20	23	
	5	19	5	2	19	22	
	6	22	5	2	19	19	
	7	27	5	2	18	18	
	8	28	5	2	18	15	
	9	29	5	2	17	14	
67	1	2	2	4	22	26	
	2	6	2	4	22	24	
	3	10	2	4	21	23	
	4	13	2	4	20	22	
	5	16	1	4	19	20	
	6	17	1	4	19	17	
	7	18	1	4	18	14	
	8	24	1	4	18	13	
	9	30	1	4	17	12	
68	1	3	3	3	9	15	
	2	6	2	3	7	13	
	3	10	2	3	7	11	
	4	17	2	3	6	10	
	5	19	1	2	4	8	
	6	21	1	2	4	7	
	7	23	1	2	2	4	
	8	24	1	1	1	3	
	9	26	1	1	1	2	
69	1	3	2	3	27	25	
	2	7	2	3	24	23	
	3	16	2	3	24	22	
	4	17	2	2	23	21	
	5	18	2	2	21	21	
	6	19	1	2	18	19	
	7	22	1	1	18	19	
	8	23	1	1	17	17	
	9	25	1	1	14	17	
70	1	2	1	4	28	27	
	2	5	1	3	26	23	
	3	6	1	3	23	21	
	4	7	1	3	21	17	
	5	11	1	3	20	13	
	6	14	1	2	17	12	
	7	15	1	2	16	7	
	8	22	1	2	13	6	
	9	27	1	2	12	4	
71	1	4	3	2	17	17	
	2	11	2	2	16	17	
	3	12	2	2	15	17	
	4	18	2	2	15	16	
	5	18	2	2	14	17	
	6	19	2	2	13	16	
	7	24	2	2	13	15	
	8	25	2	2	13	14	
	9	28	2	2	12	16	
72	1	1	5	2	22	19	
	2	4	4	2	20	15	
	3	5	4	2	16	14	
	4	13	4	2	16	13	
	5	14	3	2	14	11	
	6	15	3	2	11	9	
	7	20	2	2	10	9	
	8	22	2	2	8	7	
	9	23	2	2	6	4	
73	1	2	4	4	26	17	
	2	4	4	4	21	16	
	3	10	4	4	18	13	
	4	11	4	3	15	11	
	5	12	4	3	13	10	
	6	14	4	3	11	8	
	7	15	4	3	8	6	
	8	20	4	2	6	6	
	9	30	4	2	4	3	
74	1	1	1	5	27	13	
	2	6	1	4	24	12	
	3	10	1	4	22	10	
	4	18	1	3	18	10	
	5	20	1	3	16	9	
	6	21	1	2	14	8	
	7	23	1	2	8	7	
	8	24	1	1	5	5	
	9	25	1	1	5	4	
75	1	1	4	3	15	29	
	2	5	4	3	14	29	
	3	13	4	3	14	28	
	4	22	4	3	14	27	
	5	23	3	2	14	27	
	6	25	3	2	13	26	
	7	27	3	2	13	25	
	8	29	3	2	13	24	
	9	30	3	2	13	23	
76	1	2	4	4	26	30	
	2	8	4	3	25	25	
	3	10	4	3	20	24	
	4	17	4	3	18	20	
	5	19	3	3	17	20	
	6	21	3	2	11	17	
	7	23	2	2	10	14	
	8	28	2	2	7	10	
	9	29	2	2	3	10	
77	1	1	3	4	29	30	
	2	3	2	4	24	29	
	3	7	2	4	23	28	
	4	13	2	4	22	28	
	5	23	2	4	18	27	
	6	25	2	4	17	27	
	7	26	2	4	13	26	
	8	27	2	4	12	26	
	9	28	2	4	10	25	
78	1	5	5	4	28	22	
	2	8	4	3	23	22	
	3	11	4	3	21	22	
	4	15	3	2	17	21	
	5	22	3	2	15	21	
	6	23	2	2	13	21	
	7	24	1	2	11	20	
	8	25	1	1	9	20	
	9	28	1	1	7	20	
79	1	1	4	5	22	29	
	2	9	4	4	18	25	
	3	10	4	4	18	24	
	4	11	4	3	16	21	
	5	15	4	3	15	21	
	6	21	4	3	14	18	
	7	23	4	2	12	16	
	8	28	4	2	9	15	
	9	29	4	2	8	11	
80	1	1	3	2	20	23	
	2	6	3	1	18	20	
	3	10	3	1	14	18	
	4	15	3	1	13	18	
	5	17	2	1	11	14	
	6	22	2	1	10	13	
	7	23	2	1	6	11	
	8	24	2	1	4	11	
	9	25	2	1	3	9	
81	1	5	5	3	19	18	
	2	6	4	3	18	17	
	3	7	3	3	18	17	
	4	9	3	3	17	16	
	5	14	3	3	17	15	
	6	15	2	3	16	15	
	7	17	1	3	15	14	
	8	22	1	3	15	13	
	9	23	1	3	15	12	
82	1	1	4	3	26	24	
	2	4	4	3	25	24	
	3	5	4	3	23	21	
	4	9	4	3	22	18	
	5	10	3	3	22	18	
	6	15	3	3	21	16	
	7	24	2	3	21	13	
	8	25	2	3	19	11	
	9	26	2	3	19	10	
83	1	1	5	4	30	7	
	2	2	4	4	27	7	
	3	3	4	4	24	7	
	4	5	3	4	23	7	
	5	13	3	3	20	6	
	6	14	3	3	20	5	
	7	17	3	3	16	6	
	8	23	2	3	15	6	
	9	24	2	3	14	6	
84	1	1	2	5	14	10	
	2	3	1	4	14	9	
	3	10	1	4	13	9	
	4	12	1	4	11	8	
	5	13	1	4	8	7	
	6	18	1	4	8	6	
	7	22	1	4	7	7	
	8	23	1	4	5	6	
	9	30	1	4	3	6	
85	1	3	4	1	29	17	
	2	8	4	1	24	15	
	3	9	4	1	23	15	
	4	12	4	1	20	13	
	5	13	4	1	19	12	
	6	15	4	1	16	10	
	7	16	4	1	15	10	
	8	23	4	1	10	9	
	9	27	4	1	8	7	
86	1	6	3	4	29	28	
	2	10	3	4	24	28	
	3	13	3	3	21	26	
	4	15	3	3	18	24	
	5	16	3	3	16	24	
	6	17	3	2	16	21	
	7	20	3	1	12	19	
	8	21	3	1	8	19	
	9	22	3	1	6	17	
87	1	1	5	5	13	23	
	2	2	5	5	13	22	
	3	15	5	5	13	21	
	4	21	5	5	13	20	
	5	22	5	5	13	19	
	6	23	5	5	13	18	
	7	27	5	5	13	17	
	8	28	5	5	13	15	
	9	30	5	5	13	14	
88	1	3	5	5	16	11	
	2	6	4	4	14	11	
	3	9	4	4	14	10	
	4	13	4	4	12	11	
	5	17	4	3	11	10	
	6	23	3	3	11	10	
	7	25	3	3	10	10	
	8	27	3	2	8	10	
	9	30	3	2	8	9	
89	1	4	3	5	21	28	
	2	6	2	4	19	26	
	3	10	2	4	16	25	
	4	14	2	3	16	22	
	5	16	2	2	13	21	
	6	18	2	2	11	17	
	7	19	2	1	10	16	
	8	20	2	1	10	15	
	9	21	2	1	8	11	
90	1	2	4	3	24	13	
	2	5	4	2	22	12	
	3	6	4	2	22	11	
	4	7	3	2	20	10	
	5	9	2	2	20	9	
	6	14	2	2	17	8	
	7	15	1	2	16	8	
	8	16	1	2	16	7	
	9	21	1	2	15	6	
91	1	3	3	5	25	27	
	2	4	2	4	23	26	
	3	6	2	4	23	25	
	4	9	2	4	22	25	
	5	15	2	3	22	24	
	6	19	1	3	21	23	
	7	23	1	3	21	22	
	8	25	1	3	20	21	
	9	29	1	3	19	21	
92	1	1	5	5	28	21	
	2	2	5	4	25	18	
	3	3	5	4	25	15	
	4	4	5	4	24	13	
	5	15	5	4	21	11	
	6	16	5	3	21	10	
	7	18	5	3	19	7	
	8	22	5	3	17	7	
	9	28	5	3	17	5	
93	1	3	4	3	7	17	
	2	4	4	2	6	16	
	3	8	4	2	6	15	
	4	9	4	2	6	14	
	5	19	4	2	6	13	
	6	20	4	2	6	12	
	7	24	4	2	6	11	
	8	26	4	2	6	10	
	9	30	4	2	6	9	
94	1	2	3	3	20	24	
	2	13	2	3	18	23	
	3	15	2	3	15	23	
	4	16	2	3	14	23	
	5	17	2	2	10	22	
	6	22	2	2	8	22	
	7	23	2	2	7	21	
	8	25	2	1	6	21	
	9	28	2	1	3	21	
95	1	1	5	2	28	15	
	2	3	4	2	26	14	
	3	4	4	2	26	12	
	4	5	4	2	23	12	
	5	6	3	2	21	10	
	6	7	3	2	21	9	
	7	11	3	2	19	6	
	8	20	2	2	17	4	
	9	26	2	2	16	3	
96	1	2	2	4	28	28	
	2	8	2	4	26	24	
	3	9	2	4	26	23	
	4	10	2	4	23	21	
	5	15	2	4	23	18	
	6	16	2	4	22	16	
	7	17	2	4	19	14	
	8	20	2	4	18	13	
	9	30	2	4	18	11	
97	1	5	1	1	29	18	
	2	6	1	1	27	18	
	3	8	1	1	26	16	
	4	17	1	1	26	15	
	5	20	1	1	25	11	
	6	25	1	1	24	11	
	7	26	1	1	24	8	
	8	28	1	1	22	7	
	9	30	1	1	22	5	
98	1	5	1	4	10	24	
	2	6	1	4	9	21	
	3	7	1	4	9	18	
	4	8	1	4	9	17	
	5	11	1	4	8	15	
	6	15	1	4	8	13	
	7	16	1	4	8	9	
	8	27	1	4	8	8	
	9	29	1	4	8	6	
99	1	7	3	5	29	26	
	2	9	2	4	27	24	
	3	16	2	4	23	21	
	4	17	2	4	23	20	
	5	23	2	4	19	15	
	6	24	1	3	18	13	
	7	25	1	3	15	13	
	8	28	1	3	13	9	
	9	30	1	3	12	8	
100	1	1	2	3	27	25	
	2	2	2	3	24	24	
	3	3	2	3	22	23	
	4	10	2	3	18	22	
	5	14	1	3	15	20	
	6	15	1	3	10	20	
	7	18	1	3	7	18	
	8	29	1	3	7	17	
	9	30	1	3	2	17	
101	1	3	3	4	16	16	
	2	6	2	4	14	14	
	3	8	2	4	14	13	
	4	9	2	3	13	13	
	5	13	2	3	11	10	
	6	17	2	3	10	8	
	7	19	2	3	9	8	
	8	27	2	2	8	5	
	9	29	2	2	8	4	
102	1	0	0	0	0	0	
************************************************************************

 RESOURCE AVAILABILITIES 
	R 1	R 2	N 1	N 2
	26	29	1778	1882

************************************************************************
